0 5002 0 0
1 5002 94 0
2 5002 600 0
3 5002 1016 0
4 5002 2008 0
5 5002 2657 0
6 5002 2894 0
7 5002 3351 1
8 5002 4166 2
9 5002 4612 4
10 5002 5034 9
11 5002 5825 19
12 5002 5947 37
13 5002 6614 71
14 5002 7118 140
15 5002 7118 272
16 5002 7453 531
17 5002 7637 1138
18 5002 7957 1902
19 5002 8711 3497
20 5002 8966 5920
21 5002 9377 10368
22 5002 9377 18112
23 5002 9377 32180
24 5002 10077 54241
25 5002 10077 89729
26 5002 10564 152741
27 5002 10778 245256
28 5002 10905 407753
29 5002 10905 640311
30 5002 10905 970493
31 5002 11823 1562800
32 5002 11823 2520313
33 5002 12731 4363808
34 5002 12731 7002421
35 5002 13167 11118718
